NAME : data_8_4_tsptw.tsptw
TYPE : TSPTW
DIMENSION : 9
EDGE_WEIGHT_TYPE : EXPLICIT
EDGE_WEIGHT_FORMAT : FULL_MATRIX
EDGE_WEIGHT_SECTION
0 3118 2803 2448 3093 3150 3127 3072 2425
2877 0 545 977 122 207 346 43 977
2445 594 0 601 716 735 941 637 601
2061 1010 631 0 1132 1169 1190 1053 95
2791 348 710 1142 0 380 260 301 1142
2826 100 645 1076 70 0 295 53 1076
2725 320 450 881 442 479 0 362 881
2834 47 592 1024 79 164 304 0 1023
2175 915 536 203 1037 1074 1095 958 0
TIME_WINDOW_SECTION
1 0 600000
2 3600 14400
3 3600 14400
4 10800 21600
5 1800 7200
6 7200 18000
7 3600 9000
8 12600 23400
9 12600 18000
DEPOT_SECTION
1
-1
EOF